(set-logic QF_S)
(declare-fun var0 () String)
(assert (str.in.re var0 (re.++ (re.union (re.+ (re.union (re.+ (re.union (str.to.re "00") (str.to.re "11"))) (re.+ (re.* (str.to.re "22"))))) (re.+ (re.union (re.* (re.* (str.to.re "333"))) (re.* (re.+ (str.to.re "444")))))) (re.+ (re.* (re.+ (re.union (re.* (str.to.re "55")) (re.* (str.to.re "666")))))))))
(assert (<= 15 (str.len var0)))
(check-sat)